NAME          
ROWS
 N  OBJ
 L  c1
COLUMNS
    MARKER    'MARKER'                 'INTORG'
    x[1]      c1        794
    x[1]      OBJ       -95
    x[2]      c1        187
    x[2]      OBJ       -316
    x[3]      c1        282
    x[3]      OBJ       -820
    x[4]      c1        350
    x[4]      OBJ       -149
    x[5]      c1        135
    x[5]      OBJ       -579
    x[6]      c1        612
    x[6]      OBJ       -246
    x[7]      c1        179
    x[7]      OBJ       -589
    x[8]      c1        281
    x[8]      OBJ       -592
    x[9]      c1        608
    x[9]      OBJ       -659
    x[10]     c1        348
    x[10]     OBJ       -959
    x[11]     c1        894
    x[11]     OBJ       -198
    x[12]     c1        820
    x[12]     OBJ       -265
    x[13]     c1        686
    x[13]     OBJ       -987
    x[14]     c1        551
    x[14]     OBJ       -856
    x[15]     c1        25
    x[15]     OBJ       -93
    x[16]     c1        726
    x[16]     OBJ       -924
    x[17]     c1        482
    x[17]     OBJ       -706
    x[18]     c1        817
    x[18]     OBJ       -556
    x[19]     c1        990
    x[19]     OBJ       -246
    x[20]     c1        504
    x[20]     OBJ       -687
RHS
    rhs       c1        5136
RANGES
BOUNDS
 BV bounds    x[1]
 BV bounds    x[2]
 BV bounds    x[3]
 BV bounds    x[4]
 BV bounds    x[5]
 BV bounds    x[6]
 BV bounds    x[7]
 BV bounds    x[8]
 BV bounds    x[9]
 BV bounds    x[10]
 BV bounds    x[11]
 BV bounds    x[12]
 BV bounds    x[13]
 BV bounds    x[14]
 BV bounds    x[15]
 BV bounds    x[16]
 BV bounds    x[17]
 BV bounds    x[18]
 BV bounds    x[19]
 BV bounds    x[20]
ENDATA
